c uprop, v00.0, 
c reading from data/prog287.c.cnf
c done reading: 0.00294
p cnf 139 528
-48 -67 0
-48 -62 0
48 62 67 0
-43 62 67 0
-43 -62 -67 0
43 62 -67 0
43 -62 67 0
48 -58 0
-57 -58 0
-48 57 58 0
-48 -53 57 0
48 -53 -57 0
48 53 57 0
-48 53 -57 0
-49 58 0
-47 -49 0
47 49 -58 0
-45 47 -58 0
-45 -47 58 0
45 47 58 0
45 -47 -58 0
-44 49 0
-42 -44 0
42 44 -49 0
42 -49 -63 0
-42 49 -63 0
42 49 63 0
-42 -49 63 0
44 -68 0
-60 -68 0
-44 60 68 0
-44 60 -70 0
44 -60 -70 0
44 60 70 0
-44 -60 70 0
68 -72 0
-55 -72 0
55 -68 72 0
55 -68 -74 0
-55 68 -74 0
55 68 74 0
-55 -68 74 0
72 -76 0
-51 -76 0
51 -72 76 0
51 -72 -78 0
-51 72 -78 0
51 72 78 0
-51 -72 78 0
47 -80 0
67 -80 0
-47 -67 80 0
-47 -67 -82 0
47 67 -82 0
-47 67 82 0
47 -67 82 0
-42 -62 84 0
-42 -80 84 0
-62 -80 84 0
42 62 -84 0
42 80 -84 0
62 80 -84 0
42 -84 -86 0
62 -84 -86 0
80 -84 -86 0
-42 84 86 0
-62 84 86 0
-80 84 86 0
-42 -62 -80 86 0
42 62 80 -86 0
-57 -60 88 0
-60 -84 88 0
-57 -84 88 0
57 60 -88 0
60 84 -88 0
57 84 -88 0
60 -88 -90 0
57 -88 -90 0
84 -88 -90 0
-60 88 90 0
-57 88 90 0
-84 88 90 0
-57 -60 -84 90 0
57 60 84 -90 0
-47 -55 92 0
-55 -88 92 0
-47 -88 92 0
47 55 -92 0
55 88 -92 0
47 88 -92 0
-39 55 -92 0
-39 47 -92 0
-39 88 -92 0
39 -55 92 0
39 -47 92 0
39 -88 92 0
39 -47 -55 -88 0
-39 47 55 88 0
37 -42 -51 0
37 -51 -92 0
37 -42 -92 0
-37 42 51 0
-37 51 92 0
-37 42 92 0
-35 -37 51 0
-35 -37 42 0
-35 -37 92 0
35 37 -51 0
35 37 -42 0
35 37 -92 0
35 -42 -51 -92 0
-35 42 51 92 0
-33 60 0
-33 37 0
33 -37 -60 0
-31 -37 -60 0
-31 37 60 0
31 37 -60 0
31 -37 60 0
-29 55 0
-29 33 0
29 -33 -55 0
-33 -55 -65 0
33 55 -65 0
33 -55 65 0
-33 55 65 0
51 -61 0
29 -61 0
-29 -51 61 0
-29 -51 -56 0
29 51 -56 0
29 -51 56 0
-29 51 56 0
-46 90 0
-46 67 0
46 -67 -90 0
-41 -67 -90 0
-41 67 90 0
41 67 -90 0
41 -67 90 0
-39 59 -62 0
-39 -46 59 0
-46 59 -62 0
39 -59 62 0
39 46 -59 0
46 -59 62 0
39 -54 -59 0
-54 -59 62 0
46 -54 -59 0
-39 54 59 0
54 59 -62 0
-46 54 59 0
-39 -46 54 -62 0
39 46 -54 62 0
-35 50 -57 0
-35 50 -59 0
50 -57 -59 0
35 -50 57 0
35 -50 59 0
-50 57 59 0
-28 35 -50 0
-28 -50 57 0
-28 -50 59 0
28 -35 50 0
28 50 -57 0
28 50 -59 0
28 -35 -57 -59 0
-28 35 57 59 0
27 -31 -47 0
27 -31 -50 0
27 -47 -50 0
-27 31 47 0
-27 31 50 0
-27 47 50 0
27 -31 0
27 -47 0
27 -50 0
-31 -47 -50 0
26 -42 -65 0
26 -27 -65 0
26 -27 -42 0
-26 42 65 0
-26 27 65 0
-26 27 42 0
26 -65 0
26 -42 0
26 -27 0
-27 -42 -65 0
25 -56 -60 0
25 -26 -56 0
25 -26 -60 0
-25 56 60 0
-25 26 56 0
-25 26 60 0
25 -56 0
25 -60 0
25 -26 0
-26 -56 -60 0
24 -55 -61 0
24 -25 -61 0
24 -25 -55 0
-24 55 61 0
-24 25 61 0
-24 25 55 0
24 -61 0
24 -55 0
24 -25 0
-25 -55 -61 0
-24 -51 0
24 -51 0
-24 51 0
-23 -67 0
-23 -62 0
23 62 67 0
-22 62 67 0
-22 -62 -67 0
22 62 -67 0
22 -62 67 0
-21 23 0
-21 -57 0
21 -23 57 0
-20 -23 57 0
-20 23 -57 0
20 23 57 0
20 -23 -57 0
-19 21 0
-19 -82 0
19 -21 82 0
-18 -21 82 0
-18 21 -82 0
18 21 82 0
18 -21 -82 0
-17 19 0
-17 -86 0
17 -19 86 0
-16 -19 86 0
-16 19 -86 0
16 19 86 0
16 -19 -86 0
-15 17 0
-15 -41 0
15 -17 41 0
-14 -17 41 0
-14 17 -41 0
14 17 41 0
14 -17 -41 0
-13 15 0
-13 -54 0
13 -15 54 0
-15 54 -94 0
15 -54 -94 0
15 54 94 0
-15 -54 94 0
13 -95 0
-28 -95 0
-13 28 95 0
-13 28 -96 0
13 -28 -96 0
13 28 96 0
-13 -28 96 0
95 -97 0
-95 97 0
-95 -98 0
95 98 0
97 -99 0
-97 99 0
-97 -100 0
97 100 0
99 -101 0
-99 101 0
-99 -102 0
99 102 0
101 -103 0
-101 103 0
-101 -104 0
101 104 0
103 -105 0
-103 105 0
-103 -106 0
103 106 0
105 -107 0
-105 107 0
-105 -108 0
105 108 0
-109 -111 0
-111 -112 0
109 111 112 0
109 112 -114 0
-109 -112 -114 0
-109 112 114 0
109 -112 114 0
111 -115 0
-115 -116 0
-111 115 116 0
-111 116 -118 0
111 -116 -118 0
111 116 118 0
-111 -116 118 0
115 -119 0
-115 119 0
-115 -120 0
115 120 0
119 -121 0
-119 121 0
-119 -122 0
119 122 0
121 -123 0
-121 123 0
-121 -124 0
121 124 0
123 -125 0
-123 125 0
-123 -126 0
123 126 0
125 -127 0
-125 127 0
-125 -128 0
125 128 0
109 -129 0
-109 129 0
-112 130 0
112 -130 0
-116 131 0
116 -131 0
-52 130 0
-52 109 0
52 -109 -130 0
-109 -110 -130 0
109 -110 130 0
109 110 -130 0
-109 110 130 0
-112 113 -131 0
-52 113 -131 0
-52 -112 113 0
112 -113 131 0
52 -113 131 0
52 112 -113 0
-113 -117 131 0
112 -113 -117 0
52 -113 -117 0
113 117 -131 0
-112 113 117 0
-52 113 117 0
-52 -112 117 -131 0
52 112 -117 131 0
-113 -116 132 0
116 -132 0
113 -132 0
113 116 -132 0
-132 -133 0
116 -132 -133 0
113 -132 -133 0
-116 132 133 0
-113 132 133 0
113 116 -133 0
-132 134 0
132 -134 0
117 -135 0
109 -135 0
-109 -117 135 0
-109 -117 -136 0
109 117 -136 0
109 -117 136 0
-109 117 136 0
-112 -133 137 0
-133 -135 137 0
-112 -135 137 0
112 133 -137 0
133 135 -137 0
112 135 -137 0
133 -137 -138 0
112 -137 -138 0
135 -137 -138 0
-133 137 138 0
-112 137 138 0
-135 137 138 0
-112 -133 -135 138 0
112 133 135 -138 0
-116 -134 0
-134 -137 0
-116 -137 0
-134 139 0
-116 139 0
-137 139 0
-116 -134 -137 139 0
116 134 137 -139 0
-64 -109 0
-64 -112 0
64 109 112 0
-69 109 112 0
-69 -109 -112 0
69 -109 112 0
69 109 -112 0
64 -71 0
-71 -116 0
-64 71 116 0
-64 -73 116 0
64 -73 -116 0
64 73 116 0
-64 73 -116 0
71 -75 0
-75 -129 0
-71 75 129 0
-71 -77 129 0
71 -77 -129 0
71 77 129 0
-71 77 -129 0
75 -79 0
-79 -110 0
-75 79 110 0
-75 -81 110 0
75 -81 -110 0
75 81 110 0
-75 81 -110 0
79 -83 0
-83 -136 0
-79 83 136 0
-79 -85 136 0
79 -85 -136 0
79 85 136 0
-79 85 -136 0
83 -87 0
-87 -138 0
-83 87 138 0
-83 -89 138 0
83 -89 -138 0
83 89 138 0
-83 89 -138 0
87 -91 0
-91 -139 0
-87 91 139 0
-87 -93 139 0
87 -93 -139 0
87 93 139 0
-87 93 -139 0
-40 91 0
40 -91 0
-38 -91 0
38 91 0
-36 40 0
36 -40 0
-34 -40 0
34 40 0
-32 36 0
32 -36 0
-30 -36 0
30 36 0
32 -66 0
-32 66 0
-12 -32 0
12 32 0
-11 66 0
11 -66 0
-10 -66 0
10 66 0
-9 11 0
9 -11 0
-8 -11 0
8 11 0
-7 67 0
-7 109 0
7 -67 -109 0
-67 109 0
67 -109 0
6 -62 -112 0
6 -7 -62 0
6 -7 -112 0
-6 62 112 0
-6 7 62 0
-6 7 112 0
6 -62 0
6 -112 0
6 -7 0
-7 -62 -112 0
5 -57 -116 0
5 -6 -57 0
5 -6 -116 0
-5 57 116 0
-5 6 57 0
-5 6 116 0
-5 57 0
-5 116 0
-5 6 0
6 57 116 0
4 -82 -129 0
4 -5 -82 0
4 -5 -129 0
-4 82 129 0
-4 5 82 0
-4 5 129 0
4 -82 0
4 -129 0
4 -5 0
-5 -82 -129 0
3 -86 -110 0
3 -4 -86 0
3 -4 -110 0
-3 86 110 0
-3 4 86 0
-3 4 110 0
-3 86 0
-3 110 0
-3 4 0
4 86 110 0
2 -41 -136 0
2 -3 -41 0
2 -3 -136 0
-2 41 136 0
-2 3 41 0
-2 3 136 0
-2 41 0
-2 136 0
-2 3 0
3 41 136 0
1 -54 -138 0
1 -2 -54 0
1 -2 -138 0
-1 54 138 0
-1 2 54 0
-1 2 138 0
1 -54 0
1 -138 0
1 -2 0
-2 -54 -138 0
-28 -139 0
-1 -28 0
-1 -139 0
1 28 139 0
